sat
(:max-memory        20.32
 :memory            17.86
 :num-allocs        1225649968
 :rlimit-count      4522204
 :sls-constraints   10857
 :sls-ddfw-flips    10920780.00
 :sls-ddfw-reinits  47
 :sls-ddfw-restarts 125
 :sls-ddfw-shifts   3311062.00
 :sls.euf-conflict  10857
 :time              14.84
 :total-time        14.84)
